NAME : XML100_1246_27
DIMENSION : 101
NB_CLUSTERS : 4
CLUSTERING_ALG : KMeans
CLUSTERING_PARAMS : k(3)
CLUSTERS
1 0
2 12 14 15 16 22 23 31 33 38 43 45 49 63 65 71 72 74 86 98 99
3 2 6 7 8 9 11 13 17 18 19 20 21 24 25 26 27 28 30 32 34 39 41 42 46 47 48 50 51 53 55 57 58 59 60 61 64 66 67 68 70 73 75 76 79 80 81 82 84 85 90 91 92 93 97
4 1 3 4 5 10 29 35 36 37 40 44 52 54 56 62 69 77 78 83 87 88 89 94 95 96 100
EOF